; benchmark generated from python API
(set-info :status unknown)
(declare-fun x_months () (_ BitVec 32))
(declare-fun x_beta () (_ BitVec 32))
(assert
 (bvsle (_ bv4294966096 32) x_months))
(assert
 (bvsge (_ bv1199 32) x_months))
(assert
 (let ((?x88300 (bvsmod x_months (_ bv48 32))))
 (let ((?x13 ((as const (Array (_ BitVec 32) (_ BitVec 32))) (_ bv0 32))))
 (let ((?x15 (store ?x13 (_ bv0 32) (_ bv31 32))))
 (let ((?x18 (store ?x15 (_ bv1 32) (_ bv30 32))))
 (let ((?x20 (store ?x18 (_ bv2 32) (_ bv31 32))))
 (let ((?x22 (store ?x20 (_ bv3 32) (_ bv30 32))))
 (let ((?x24 (store ?x22 (_ bv4 32) (_ bv31 32))))
 (let ((?x26 (store ?x24 (_ bv5 32) (_ bv31 32))))
 (let ((?x28 (store ?x26 (_ bv6 32) (_ bv30 32))))
 (let ((?x30 (store ?x28 (_ bv7 32) (_ bv31 32))))
 (let ((?x32 (store ?x30 (_ bv8 32) (_ bv30 32))))
 (let ((?x34 (store ?x32 (_ bv9 32) (_ bv31 32))))
 (let ((?x36 (store ?x34 (_ bv10 32) (_ bv31 32))))
 (let ((?x39 (store ?x36 (_ bv11 32) (_ bv28 32))))
 (let ((?x41 (store ?x39 (_ bv12 32) (_ bv31 32))))
 (let ((?x43 (store ?x41 (_ bv13 32) (_ bv30 32))))
 (let ((?x45 (store ?x43 (_ bv14 32) (_ bv31 32))))
 (let ((?x47 (store ?x45 (_ bv15 32) (_ bv30 32))))
 (let ((?x49 (store ?x47 (_ bv16 32) (_ bv31 32))))
 (let ((?x51 (store ?x49 (_ bv17 32) (_ bv31 32))))
 (let ((?x53 (store ?x51 (_ bv18 32) (_ bv30 32))))
 (let ((?x55 (store ?x53 (_ bv19 32) (_ bv31 32))))
 (let ((?x57 (store ?x55 (_ bv20 32) (_ bv30 32))))
 (let ((?x59 (store ?x57 (_ bv21 32) (_ bv31 32))))
 (let ((?x61 (store ?x59 (_ bv22 32) (_ bv31 32))))
 (let ((?x63 (store ?x61 (_ bv23 32) (_ bv28 32))))
 (let ((?x65 (store ?x63 (_ bv24 32) (_ bv31 32))))
 (let ((?x67 (store ?x65 (_ bv25 32) (_ bv30 32))))
 (let ((?x69 (store ?x67 (_ bv26 32) (_ bv31 32))))
 (let ((?x71 (store ?x69 (_ bv27 32) (_ bv30 32))))
 (let ((?x72 (store ?x71 (_ bv28 32) (_ bv31 32))))
 (let ((?x74 (store ?x72 (_ bv29 32) (_ bv31 32))))
 (let ((?x75 (store ?x74 (_ bv30 32) (_ bv30 32))))
 (let ((?x76 (store ?x75 (_ bv31 32) (_ bv31 32))))
 (let ((?x78 (store ?x76 (_ bv32 32) (_ bv30 32))))
 (let ((?x80 (store ?x78 (_ bv33 32) (_ bv31 32))))
 (let ((?x82 (store ?x80 (_ bv34 32) (_ bv31 32))))
 (let ((?x84 (store ?x82 (_ bv35 32) (_ bv28 32))))
 (let ((?x86 (store ?x84 (_ bv36 32) (_ bv31 32))))
 (let ((?x88 (store ?x86 (_ bv37 32) (_ bv30 32))))
 (let ((?x90 (store ?x88 (_ bv38 32) (_ bv31 32))))
 (let ((?x92 (store ?x90 (_ bv39 32) (_ bv30 32))))
 (let ((?x94 (store ?x92 (_ bv40 32) (_ bv31 32))))
 (let ((?x96 (store ?x94 (_ bv41 32) (_ bv31 32))))
 (let ((?x98 (store ?x96 (_ bv42 32) (_ bv30 32))))
 (let ((?x100 (store ?x98 (_ bv43 32) (_ bv31 32))))
 (let ((?x102 (store ?x100 (_ bv44 32) (_ bv30 32))))
 (let ((?x104 (store ?x102 (_ bv45 32) (_ bv31 32))))
 (let ((?x106 (store ?x104 (_ bv46 32) (_ bv31 32))))
 (let ((?x108 (store ?x106 (_ bv47 32) (_ bv29 32))))
 (let (($x89667 (or (= (_ bv22802 32) (bvadd x_months (_ bv24003 32))) (= (_ bv25202 32) (bvadd x_months (_ bv24003 32))))))
 (let ((?x49079 (ite $x89667 (_ bv28 32) (select ?x108 ?x88300))))
 (let (($x2927 (bvsle (_ bv0 32) x_beta)))
 (and $x2927 (bvslt x_beta ?x49079))))))))))))))))))))))))))))))))))))))))))))))))))))))))
(assert
 (let (($x31148 (bvsle (_ bv30 32) x_beta)))
 (or (bvsgt x_months (bvsub (bvadd (bvmul (_ bv2023 32) (_ bv12 32)) (_ bv1 32)) (_ bv24003 32))) (and (= x_months (bvsub (bvadd (bvmul (_ bv2023 32) (_ bv12 32)) (_ bv1 32)) (_ bv24003 32))) $x31148))))
(assert
 (let ((?x74787 (bvadd x_months (_ bv1 32))))
(let ((?x62013 (bvsmod ?x74787 (_ bv48 32))))
(let ((?x76091 (ite (bvsgt (_ bv22803 32) (bvadd ?x74787 (_ bv24003 32))) (_ bv1 32) (ite (bvsle (_ bv25203 32) (bvadd ?x74787 (_ bv24003 32))) (_ bv4294967295 32) (_ bv0 32)))))
(let ((?x13 ((as const (Array (_ BitVec 32) (_ BitVec 32))) (_ bv0 32))))
(let ((?x15 (store ?x13 (_ bv0 32) (_ bv31 32))))
(let ((?x18 (store ?x15 (_ bv1 32) (_ bv30 32))))
(let ((?x20 (store ?x18 (_ bv2 32) (_ bv31 32))))
(let ((?x22 (store ?x20 (_ bv3 32) (_ bv30 32))))
(let ((?x24 (store ?x22 (_ bv4 32) (_ bv31 32))))
(let ((?x26 (store ?x24 (_ bv5 32) (_ bv31 32))))
(let ((?x28 (store ?x26 (_ bv6 32) (_ bv30 32))))
(let ((?x30 (store ?x28 (_ bv7 32) (_ bv31 32))))
(let ((?x32 (store ?x30 (_ bv8 32) (_ bv30 32))))
(let ((?x34 (store ?x32 (_ bv9 32) (_ bv31 32))))
(let ((?x36 (store ?x34 (_ bv10 32) (_ bv31 32))))
(let ((?x39 (store ?x36 (_ bv11 32) (_ bv28 32))))
(let ((?x41 (store ?x39 (_ bv12 32) (_ bv31 32))))
(let ((?x43 (store ?x41 (_ bv13 32) (_ bv30 32))))
(let ((?x45 (store ?x43 (_ bv14 32) (_ bv31 32))))
(let ((?x47 (store ?x45 (_ bv15 32) (_ bv30 32))))
(let ((?x49 (store ?x47 (_ bv16 32) (_ bv31 32))))
(let ((?x51 (store ?x49 (_ bv17 32) (_ bv31 32))))
(let ((?x53 (store ?x51 (_ bv18 32) (_ bv30 32))))
(let ((?x55 (store ?x53 (_ bv19 32) (_ bv31 32))))
(let ((?x57 (store ?x55 (_ bv20 32) (_ bv30 32))))
(let ((?x59 (store ?x57 (_ bv21 32) (_ bv31 32))))
(let ((?x61 (store ?x59 (_ bv22 32) (_ bv31 32))))
(let ((?x63 (store ?x61 (_ bv23 32) (_ bv28 32))))
(let ((?x65 (store ?x63 (_ bv24 32) (_ bv31 32))))
(let ((?x67 (store ?x65 (_ bv25 32) (_ bv30 32))))
(let ((?x69 (store ?x67 (_ bv26 32) (_ bv31 32))))
(let ((?x71 (store ?x69 (_ bv27 32) (_ bv30 32))))
(let ((?x72 (store ?x71 (_ bv28 32) (_ bv31 32))))
(let ((?x74 (store ?x72 (_ bv29 32) (_ bv31 32))))
(let ((?x75 (store ?x74 (_ bv30 32) (_ bv30 32))))
(let ((?x76 (store ?x75 (_ bv31 32) (_ bv31 32))))
(let ((?x78 (store ?x76 (_ bv32 32) (_ bv30 32))))
(let ((?x80 (store ?x78 (_ bv33 32) (_ bv31 32))))
(let ((?x82 (store ?x80 (_ bv34 32) (_ bv31 32))))
(let ((?x84 (store ?x82 (_ bv35 32) (_ bv28 32))))
(let ((?x86 (store ?x84 (_ bv36 32) (_ bv31 32))))
(let ((?x88 (store ?x86 (_ bv37 32) (_ bv30 32))))
(let ((?x90 (store ?x88 (_ bv38 32) (_ bv31 32))))
(let ((?x92 (store ?x90 (_ bv39 32) (_ bv30 32))))
(let ((?x94 (store ?x92 (_ bv40 32) (_ bv31 32))))
(let ((?x96 (store ?x94 (_ bv41 32) (_ bv31 32))))
(let ((?x98 (store ?x96 (_ bv42 32) (_ bv30 32))))
(let ((?x100 (store ?x98 (_ bv43 32) (_ bv31 32))))
(let ((?x102 (store ?x100 (_ bv44 32) (_ bv30 32))))
(let ((?x104 (store ?x102 (_ bv45 32) (_ bv31 32))))
(let ((?x106 (store ?x104 (_ bv46 32) (_ bv31 32))))
(let ((?x108 (store ?x106 (_ bv47 32) (_ bv29 32))))
(let ((?x47412 (ite (or (= (_ bv22802 32) (bvadd ?x74787 (_ bv24003 32))) (= (_ bv25202 32) (bvadd ?x74787 (_ bv24003 32)))) (_ bv28 32) (select ?x108 ?x62013))))
(let ((?x24323 (bvsub ?x47412 (_ bv1 32))))
(let ((?x63367 (ite (bvsgt (_ bv0 32) x_beta) (_ bv0 32) (ite (bvsgt x_beta ?x24323) ?x24323 x_beta))))
(let ((?x114 (store (store (store (store ?x13 (_ bv0 32) (_ bv0 32)) (_ bv1 32) (_ bv31 32)) (_ bv2 32) (_ bv61 32)) (_ bv3 32) (_ bv92 32))))
(let ((?x122 (store (store (store (store ?x114 (_ bv4 32) (_ bv122 32)) (_ bv5 32) (_ bv153 32)) (_ bv6 32) (_ bv184 32)) (_ bv7 32) (_ bv214 32))))
(let ((?x130 (store (store (store (store ?x122 (_ bv8 32) (_ bv245 32)) (_ bv9 32) (_ bv275 32)) (_ bv10 32) (_ bv306 32)) (_ bv11 32) (_ bv337 32))))
(let ((?x138 (store (store (store (store ?x130 (_ bv12 32) (_ bv365 32)) (_ bv13 32) (_ bv396 32)) (_ bv14 32) (_ bv426 32)) (_ bv15 32) (_ bv457 32))))
(let ((?x146 (store (store (store (store ?x138 (_ bv16 32) (_ bv487 32)) (_ bv17 32) (_ bv518 32)) (_ bv18 32) (_ bv549 32)) (_ bv19 32) (_ bv579 32))))
(let ((?x154 (store (store (store (store ?x146 (_ bv20 32) (_ bv610 32)) (_ bv21 32) (_ bv640 32)) (_ bv22 32) (_ bv671 32)) (_ bv23 32) (_ bv702 32))))
(let ((?x162 (store (store (store (store ?x154 (_ bv24 32) (_ bv730 32)) (_ bv25 32) (_ bv761 32)) (_ bv26 32) (_ bv791 32)) (_ bv27 32) (_ bv822 32))))
(let ((?x170 (store (store (store (store ?x162 (_ bv28 32) (_ bv852 32)) (_ bv29 32) (_ bv883 32)) (_ bv30 32) (_ bv914 32)) (_ bv31 32) (_ bv944 32))))
(let ((?x178 (store (store (store (store ?x170 (_ bv32 32) (_ bv975 32)) (_ bv33 32) (_ bv1005 32)) (_ bv34 32) (_ bv1036 32)) (_ bv35 32) (_ bv1067 32))))
(let ((?x186 (store (store (store (store ?x178 (_ bv36 32) (_ bv1095 32)) (_ bv37 32) (_ bv1126 32)) (_ bv38 32) (_ bv1156 32)) (_ bv39 32) (_ bv1187 32))))
(let ((?x194 (store (store (store (store ?x186 (_ bv40 32) (_ bv1217 32)) (_ bv41 32) (_ bv1248 32)) (_ bv42 32) (_ bv1279 32)) (_ bv43 32) (_ bv1309 32))))
(let ((?x202 (store (store (store (store ?x194 (_ bv44 32) (_ bv1340 32)) (_ bv45 32) (_ bv1370 32)) (_ bv46 32) (_ bv1401 32)) (_ bv47 32) (_ bv1432 32))))
(let ((?x69422 (bvadd (bvadd (bvadd (select ?x202 ?x62013) ?x63367) ?x76091) (_ bv0 32))))
(let ((?x60835 (ite (bvuge ?x69422 (_ bv2147483648 32)) (bvsub ?x69422 (_ bv0 32)) ?x69422)))
(let ((?x99817 (bvsdiv ?x60835 (_ bv1461 32))))
(let ((?x27407 (ite (and (bvuge ?x60835 (_ bv2147483648 32)) (and (distinct (_ bv0 32) (bvsmod ?x60835 (_ bv1461 32))) true)) (bvsub ?x99817 (_ bv1 32)) ?x99817)))
(let ((?x20275 (bvadd ?x74787 (bvmul ?x27407 (_ bv48 32)))))
(let ((?x89668 (bvadd (bvadd ?x20275 (bvsub (_ bv1 32) ?x62013)) (_ bv24003 32))))
(let ((?x12267 (bvadd (select ?x202 (_ bv1 32)) (ite (bvsgt (_ bv22803 32) ?x89668) (_ bv1 32) (ite (bvsle (_ bv25203 32) ?x89668) (_ bv4294967295 32) (_ bv0 32))))))
(let ((?x36977 (bvsmod ?x69422 (_ bv1461 32))))
(let ((?x79100 (ite (bvsle (_ bv25203 32) (bvadd (bvadd ?x20275 (bvsub (_ bv2 32) ?x62013)) (_ bv24003 32))) (_ bv4294967295 32) (_ bv0 32))))
(let ((?x61464 (ite (bvsgt (_ bv22803 32) (bvadd (bvadd ?x20275 (bvsub (_ bv2 32) ?x62013)) (_ bv24003 32))) (_ bv1 32) ?x79100)))
(let ((?x45368 (ite (bvsge ?x36977 (bvadd (select ?x202 (_ bv2 32)) ?x61464)) (_ bv2 32) (ite (bvsge ?x36977 ?x12267) (_ bv1 32) (_ bv0 32)))))
(let ((?x20834 (ite (bvsle (_ bv25203 32) (bvadd (bvadd ?x20275 (bvsub (_ bv3 32) ?x62013)) (_ bv24003 32))) (_ bv4294967295 32) (_ bv0 32))))
(let ((?x46939 (ite (bvsgt (_ bv22803 32) (bvadd (bvadd ?x20275 (bvsub (_ bv3 32) ?x62013)) (_ bv24003 32))) (_ bv1 32) ?x20834)))
(let ((?x63479 (ite (bvsle (_ bv25203 32) (bvadd (bvadd ?x20275 (bvsub (_ bv4 32) ?x62013)) (_ bv24003 32))) (_ bv4294967295 32) (_ bv0 32))))
(let ((?x39800 (ite (bvsgt (_ bv22803 32) (bvadd (bvadd ?x20275 (bvsub (_ bv4 32) ?x62013)) (_ bv24003 32))) (_ bv1 32) ?x63479)))
(let ((?x56912 (ite (bvsge ?x36977 (bvadd (select ?x202 (_ bv4 32)) ?x39800)) (_ bv4 32) (ite (bvsge ?x36977 (bvadd (select ?x202 (_ bv3 32)) ?x46939)) (_ bv3 32) ?x45368))))
(let ((?x17520 (ite (bvsle (_ bv25203 32) (bvadd (bvadd ?x20275 (bvsub (_ bv5 32) ?x62013)) (_ bv24003 32))) (_ bv4294967295 32) (_ bv0 32))))
(let ((?x78222 (ite (bvsgt (_ bv22803 32) (bvadd (bvadd ?x20275 (bvsub (_ bv5 32) ?x62013)) (_ bv24003 32))) (_ bv1 32) ?x17520)))
(let ((?x46978 (ite (bvsle (_ bv25203 32) (bvadd (bvadd ?x20275 (bvsub (_ bv6 32) ?x62013)) (_ bv24003 32))) (_ bv4294967295 32) (_ bv0 32))))
(let ((?x47346 (ite (bvsgt (_ bv22803 32) (bvadd (bvadd ?x20275 (bvsub (_ bv6 32) ?x62013)) (_ bv24003 32))) (_ bv1 32) ?x46978)))
(let ((?x38283 (ite (bvsge ?x36977 (bvadd (select ?x202 (_ bv6 32)) ?x47346)) (_ bv6 32) (ite (bvsge ?x36977 (bvadd (select ?x202 (_ bv5 32)) ?x78222)) (_ bv5 32) ?x56912))))
(let ((?x29581 (ite (bvsle (_ bv25203 32) (bvadd (bvadd ?x20275 (bvsub (_ bv7 32) ?x62013)) (_ bv24003 32))) (_ bv4294967295 32) (_ bv0 32))))
(let ((?x54334 (ite (bvsgt (_ bv22803 32) (bvadd (bvadd ?x20275 (bvsub (_ bv7 32) ?x62013)) (_ bv24003 32))) (_ bv1 32) ?x29581)))
(let ((?x72352 (ite (bvsle (_ bv25203 32) (bvadd (bvadd ?x20275 (bvsub (_ bv8 32) ?x62013)) (_ bv24003 32))) (_ bv4294967295 32) (_ bv0 32))))
(let ((?x40505 (ite (bvsgt (_ bv22803 32) (bvadd (bvadd ?x20275 (bvsub (_ bv8 32) ?x62013)) (_ bv24003 32))) (_ bv1 32) ?x72352)))
(let ((?x20653 (ite (bvsge ?x36977 (bvadd (select ?x202 (_ bv8 32)) ?x40505)) (_ bv8 32) (ite (bvsge ?x36977 (bvadd (select ?x202 (_ bv7 32)) ?x54334)) (_ bv7 32) ?x38283))))
(let ((?x70402 (ite (bvsle (_ bv25203 32) (bvadd (bvadd ?x20275 (bvsub (_ bv9 32) ?x62013)) (_ bv24003 32))) (_ bv4294967295 32) (_ bv0 32))))
(let ((?x33957 (ite (bvsgt (_ bv22803 32) (bvadd (bvadd ?x20275 (bvsub (_ bv9 32) ?x62013)) (_ bv24003 32))) (_ bv1 32) ?x70402)))
(let ((?x50218 (ite (bvsle (_ bv25203 32) (bvadd (bvadd ?x20275 (bvsub (_ bv10 32) ?x62013)) (_ bv24003 32))) (_ bv4294967295 32) (_ bv0 32))))
(let ((?x86979 (ite (bvsgt (_ bv22803 32) (bvadd (bvadd ?x20275 (bvsub (_ bv10 32) ?x62013)) (_ bv24003 32))) (_ bv1 32) ?x50218)))
(let ((?x64048 (ite (bvsge ?x36977 (bvadd (select ?x202 (_ bv10 32)) ?x86979)) (_ bv10 32) (ite (bvsge ?x36977 (bvadd (select ?x202 (_ bv9 32)) ?x33957)) (_ bv9 32) ?x20653))))
(let ((?x87078 (ite (bvsle (_ bv25203 32) (bvadd (bvadd ?x20275 (bvsub (_ bv11 32) ?x62013)) (_ bv24003 32))) (_ bv4294967295 32) (_ bv0 32))))
(let ((?x69173 (ite (bvsgt (_ bv22803 32) (bvadd (bvadd ?x20275 (bvsub (_ bv11 32) ?x62013)) (_ bv24003 32))) (_ bv1 32) ?x87078)))
(let ((?x23379 (ite (bvsle (_ bv25203 32) (bvadd (bvadd ?x20275 (bvsub (_ bv12 32) ?x62013)) (_ bv24003 32))) (_ bv4294967295 32) (_ bv0 32))))
(let ((?x49613 (ite (bvsgt (_ bv22803 32) (bvadd (bvadd ?x20275 (bvsub (_ bv12 32) ?x62013)) (_ bv24003 32))) (_ bv1 32) ?x23379)))
(let ((?x78248 (ite (bvsge ?x36977 (bvadd (select ?x202 (_ bv12 32)) ?x49613)) (_ bv12 32) (ite (bvsge ?x36977 (bvadd (select ?x202 (_ bv11 32)) ?x69173)) (_ bv11 32) ?x64048))))
(let ((?x74776 (ite (bvsle (_ bv25203 32) (bvadd (bvadd ?x20275 (bvsub (_ bv13 32) ?x62013)) (_ bv24003 32))) (_ bv4294967295 32) (_ bv0 32))))
(let ((?x6587 (ite (bvsgt (_ bv22803 32) (bvadd (bvadd ?x20275 (bvsub (_ bv13 32) ?x62013)) (_ bv24003 32))) (_ bv1 32) ?x74776)))
(let ((?x12451 (ite (bvsle (_ bv25203 32) (bvadd (bvadd ?x20275 (bvsub (_ bv14 32) ?x62013)) (_ bv24003 32))) (_ bv4294967295 32) (_ bv0 32))))
(let ((?x18463 (ite (bvsgt (_ bv22803 32) (bvadd (bvadd ?x20275 (bvsub (_ bv14 32) ?x62013)) (_ bv24003 32))) (_ bv1 32) ?x12451)))
(let ((?x42066 (ite (bvsge ?x36977 (bvadd (select ?x202 (_ bv14 32)) ?x18463)) (_ bv14 32) (ite (bvsge ?x36977 (bvadd (select ?x202 (_ bv13 32)) ?x6587)) (_ bv13 32) ?x78248))))
(let ((?x10908 (ite (bvsle (_ bv25203 32) (bvadd (bvadd ?x20275 (bvsub (_ bv15 32) ?x62013)) (_ bv24003 32))) (_ bv4294967295 32) (_ bv0 32))))
(let ((?x89665 (ite (bvsgt (_ bv22803 32) (bvadd (bvadd ?x20275 (bvsub (_ bv15 32) ?x62013)) (_ bv24003 32))) (_ bv1 32) ?x10908)))
(let ((?x89676 (ite (bvsle (_ bv25203 32) (bvadd (bvadd ?x20275 (bvsub (_ bv16 32) ?x62013)) (_ bv24003 32))) (_ bv4294967295 32) (_ bv0 32))))
(let ((?x37047 (ite (bvsgt (_ bv22803 32) (bvadd (bvadd ?x20275 (bvsub (_ bv16 32) ?x62013)) (_ bv24003 32))) (_ bv1 32) ?x89676)))
(let ((?x69104 (ite (bvsge ?x36977 (bvadd (select ?x202 (_ bv16 32)) ?x37047)) (_ bv16 32) (ite (bvsge ?x36977 (bvadd (select ?x202 (_ bv15 32)) ?x89665)) (_ bv15 32) ?x42066))))
(let ((?x41741 (ite (bvsle (_ bv25203 32) (bvadd (bvadd ?x20275 (bvsub (_ bv17 32) ?x62013)) (_ bv24003 32))) (_ bv4294967295 32) (_ bv0 32))))
(let ((?x44293 (ite (bvsgt (_ bv22803 32) (bvadd (bvadd ?x20275 (bvsub (_ bv17 32) ?x62013)) (_ bv24003 32))) (_ bv1 32) ?x41741)))
(let ((?x63661 (ite (bvsle (_ bv25203 32) (bvadd (bvadd ?x20275 (bvsub (_ bv18 32) ?x62013)) (_ bv24003 32))) (_ bv4294967295 32) (_ bv0 32))))
(let ((?x38037 (ite (bvsgt (_ bv22803 32) (bvadd (bvadd ?x20275 (bvsub (_ bv18 32) ?x62013)) (_ bv24003 32))) (_ bv1 32) ?x63661)))
(let ((?x87221 (ite (bvsge ?x36977 (bvadd (select ?x202 (_ bv18 32)) ?x38037)) (_ bv18 32) (ite (bvsge ?x36977 (bvadd (select ?x202 (_ bv17 32)) ?x44293)) (_ bv17 32) ?x69104))))
(let ((?x53262 (ite (bvsle (_ bv25203 32) (bvadd (bvadd ?x20275 (bvsub (_ bv19 32) ?x62013)) (_ bv24003 32))) (_ bv4294967295 32) (_ bv0 32))))
(let ((?x72491 (ite (bvsgt (_ bv22803 32) (bvadd (bvadd ?x20275 (bvsub (_ bv19 32) ?x62013)) (_ bv24003 32))) (_ bv1 32) ?x53262)))
(let ((?x19512 (ite (bvsle (_ bv25203 32) (bvadd (bvadd ?x20275 (bvsub (_ bv20 32) ?x62013)) (_ bv24003 32))) (_ bv4294967295 32) (_ bv0 32))))
(let ((?x49191 (ite (bvsgt (_ bv22803 32) (bvadd (bvadd ?x20275 (bvsub (_ bv20 32) ?x62013)) (_ bv24003 32))) (_ bv1 32) ?x19512)))
(let ((?x43296 (ite (bvsge ?x36977 (bvadd (select ?x202 (_ bv20 32)) ?x49191)) (_ bv20 32) (ite (bvsge ?x36977 (bvadd (select ?x202 (_ bv19 32)) ?x72491)) (_ bv19 32) ?x87221))))
(let ((?x71902 (ite (bvsle (_ bv25203 32) (bvadd (bvadd ?x20275 (bvsub (_ bv21 32) ?x62013)) (_ bv24003 32))) (_ bv4294967295 32) (_ bv0 32))))
(let ((?x88005 (ite (bvsgt (_ bv22803 32) (bvadd (bvadd ?x20275 (bvsub (_ bv21 32) ?x62013)) (_ bv24003 32))) (_ bv1 32) ?x71902)))
(let ((?x80051 (ite (bvsle (_ bv25203 32) (bvadd (bvadd ?x20275 (bvsub (_ bv22 32) ?x62013)) (_ bv24003 32))) (_ bv4294967295 32) (_ bv0 32))))
(let ((?x64970 (ite (bvsgt (_ bv22803 32) (bvadd (bvadd ?x20275 (bvsub (_ bv22 32) ?x62013)) (_ bv24003 32))) (_ bv1 32) ?x80051)))
(let ((?x68447 (ite (bvsge ?x36977 (bvadd (select ?x202 (_ bv22 32)) ?x64970)) (_ bv22 32) (ite (bvsge ?x36977 (bvadd (select ?x202 (_ bv21 32)) ?x88005)) (_ bv21 32) ?x43296))))
(let ((?x1551 (ite (bvsle (_ bv25203 32) (bvadd (bvadd ?x20275 (bvsub (_ bv23 32) ?x62013)) (_ bv24003 32))) (_ bv4294967295 32) (_ bv0 32))))
(let ((?x59966 (ite (bvsgt (_ bv22803 32) (bvadd (bvadd ?x20275 (bvsub (_ bv23 32) ?x62013)) (_ bv24003 32))) (_ bv1 32) ?x1551)))
(let ((?x67266 (ite (bvsle (_ bv25203 32) (bvadd (bvadd ?x20275 (bvsub (_ bv24 32) ?x62013)) (_ bv24003 32))) (_ bv4294967295 32) (_ bv0 32))))
(let ((?x84553 (ite (bvsgt (_ bv22803 32) (bvadd (bvadd ?x20275 (bvsub (_ bv24 32) ?x62013)) (_ bv24003 32))) (_ bv1 32) ?x67266)))
(let ((?x35210 (ite (bvsge ?x36977 (bvadd (select ?x202 (_ bv24 32)) ?x84553)) (_ bv24 32) (ite (bvsge ?x36977 (bvadd (select ?x202 (_ bv23 32)) ?x59966)) (_ bv23 32) ?x68447))))
(let ((?x85221 (ite (bvsle (_ bv25203 32) (bvadd (bvadd ?x20275 (bvsub (_ bv25 32) ?x62013)) (_ bv24003 32))) (_ bv4294967295 32) (_ bv0 32))))
(let ((?x29224 (ite (bvsgt (_ bv22803 32) (bvadd (bvadd ?x20275 (bvsub (_ bv25 32) ?x62013)) (_ bv24003 32))) (_ bv1 32) ?x85221)))
(let ((?x3650 (ite (bvsle (_ bv25203 32) (bvadd (bvadd ?x20275 (bvsub (_ bv26 32) ?x62013)) (_ bv24003 32))) (_ bv4294967295 32) (_ bv0 32))))
(let ((?x17437 (ite (bvsgt (_ bv22803 32) (bvadd (bvadd ?x20275 (bvsub (_ bv26 32) ?x62013)) (_ bv24003 32))) (_ bv1 32) ?x3650)))
(let ((?x75571 (ite (bvsge ?x36977 (bvadd (select ?x202 (_ bv26 32)) ?x17437)) (_ bv26 32) (ite (bvsge ?x36977 (bvadd (select ?x202 (_ bv25 32)) ?x29224)) (_ bv25 32) ?x35210))))
(let ((?x20354 (ite (bvsle (_ bv25203 32) (bvadd (bvadd ?x20275 (bvsub (_ bv27 32) ?x62013)) (_ bv24003 32))) (_ bv4294967295 32) (_ bv0 32))))
(let ((?x58551 (ite (bvsgt (_ bv22803 32) (bvadd (bvadd ?x20275 (bvsub (_ bv27 32) ?x62013)) (_ bv24003 32))) (_ bv1 32) ?x20354)))
(let ((?x27958 (ite (bvsle (_ bv25203 32) (bvadd (bvadd ?x20275 (bvsub (_ bv28 32) ?x62013)) (_ bv24003 32))) (_ bv4294967295 32) (_ bv0 32))))
(let ((?x90831 (ite (bvsgt (_ bv22803 32) (bvadd (bvadd ?x20275 (bvsub (_ bv28 32) ?x62013)) (_ bv24003 32))) (_ bv1 32) ?x27958)))
(let ((?x95729 (ite (bvsge ?x36977 (bvadd (select ?x202 (_ bv28 32)) ?x90831)) (_ bv28 32) (ite (bvsge ?x36977 (bvadd (select ?x202 (_ bv27 32)) ?x58551)) (_ bv27 32) ?x75571))))
(let ((?x89670 (ite (bvsle (_ bv25203 32) (bvadd (bvadd ?x20275 (bvsub (_ bv29 32) ?x62013)) (_ bv24003 32))) (_ bv4294967295 32) (_ bv0 32))))
(let ((?x58080 (ite (bvsgt (_ bv22803 32) (bvadd (bvadd ?x20275 (bvsub (_ bv29 32) ?x62013)) (_ bv24003 32))) (_ bv1 32) ?x89670)))
(let ((?x48132 (ite (bvsle (_ bv25203 32) (bvadd (bvadd ?x20275 (bvsub (_ bv30 32) ?x62013)) (_ bv24003 32))) (_ bv4294967295 32) (_ bv0 32))))
(let ((?x22030 (ite (bvsgt (_ bv22803 32) (bvadd (bvadd ?x20275 (bvsub (_ bv30 32) ?x62013)) (_ bv24003 32))) (_ bv1 32) ?x48132)))
(let ((?x49331 (ite (bvsge ?x36977 (bvadd (select ?x202 (_ bv30 32)) ?x22030)) (_ bv30 32) (ite (bvsge ?x36977 (bvadd (select ?x202 (_ bv29 32)) ?x58080)) (_ bv29 32) ?x95729))))
(let ((?x58407 (ite (bvsle (_ bv25203 32) (bvadd (bvadd ?x20275 (bvsub (_ bv31 32) ?x62013)) (_ bv24003 32))) (_ bv4294967295 32) (_ bv0 32))))
(let ((?x94614 (ite (bvsgt (_ bv22803 32) (bvadd (bvadd ?x20275 (bvsub (_ bv31 32) ?x62013)) (_ bv24003 32))) (_ bv1 32) ?x58407)))
(let ((?x71457 (ite (bvsle (_ bv25203 32) (bvadd (bvadd ?x20275 (bvsub (_ bv32 32) ?x62013)) (_ bv24003 32))) (_ bv4294967295 32) (_ bv0 32))))
(let ((?x83908 (ite (bvsgt (_ bv22803 32) (bvadd (bvadd ?x20275 (bvsub (_ bv32 32) ?x62013)) (_ bv24003 32))) (_ bv1 32) ?x71457)))
(let ((?x47503 (ite (bvsge ?x36977 (bvadd (select ?x202 (_ bv32 32)) ?x83908)) (_ bv32 32) (ite (bvsge ?x36977 (bvadd (select ?x202 (_ bv31 32)) ?x94614)) (_ bv31 32) ?x49331))))
(let ((?x16844 (ite (bvsle (_ bv25203 32) (bvadd (bvadd ?x20275 (bvsub (_ bv33 32) ?x62013)) (_ bv24003 32))) (_ bv4294967295 32) (_ bv0 32))))
(let ((?x85436 (ite (bvsgt (_ bv22803 32) (bvadd (bvadd ?x20275 (bvsub (_ bv33 32) ?x62013)) (_ bv24003 32))) (_ bv1 32) ?x16844)))
(let ((?x69640 (ite (bvsle (_ bv25203 32) (bvadd (bvadd ?x20275 (bvsub (_ bv34 32) ?x62013)) (_ bv24003 32))) (_ bv4294967295 32) (_ bv0 32))))
(let ((?x47014 (ite (bvsgt (_ bv22803 32) (bvadd (bvadd ?x20275 (bvsub (_ bv34 32) ?x62013)) (_ bv24003 32))) (_ bv1 32) ?x69640)))
(let ((?x59281 (ite (bvsge ?x36977 (bvadd (select ?x202 (_ bv34 32)) ?x47014)) (_ bv34 32) (ite (bvsge ?x36977 (bvadd (select ?x202 (_ bv33 32)) ?x85436)) (_ bv33 32) ?x47503))))
(let ((?x26126 (ite (bvsle (_ bv25203 32) (bvadd (bvadd ?x20275 (bvsub (_ bv35 32) ?x62013)) (_ bv24003 32))) (_ bv4294967295 32) (_ bv0 32))))
(let ((?x97034 (ite (bvsgt (_ bv22803 32) (bvadd (bvadd ?x20275 (bvsub (_ bv35 32) ?x62013)) (_ bv24003 32))) (_ bv1 32) ?x26126)))
(let ((?x6827 (ite (bvsle (_ bv25203 32) (bvadd (bvadd ?x20275 (bvsub (_ bv36 32) ?x62013)) (_ bv24003 32))) (_ bv4294967295 32) (_ bv0 32))))
(let ((?x46468 (ite (bvsgt (_ bv22803 32) (bvadd (bvadd ?x20275 (bvsub (_ bv36 32) ?x62013)) (_ bv24003 32))) (_ bv1 32) ?x6827)))
(let ((?x88264 (ite (bvsge ?x36977 (bvadd (select ?x202 (_ bv36 32)) ?x46468)) (_ bv36 32) (ite (bvsge ?x36977 (bvadd (select ?x202 (_ bv35 32)) ?x97034)) (_ bv35 32) ?x59281))))
(let ((?x22806 (ite (bvsle (_ bv25203 32) (bvadd (bvadd ?x20275 (bvsub (_ bv37 32) ?x62013)) (_ bv24003 32))) (_ bv4294967295 32) (_ bv0 32))))
(let ((?x2352 (ite (bvsgt (_ bv22803 32) (bvadd (bvadd ?x20275 (bvsub (_ bv37 32) ?x62013)) (_ bv24003 32))) (_ bv1 32) ?x22806)))
(let ((?x95755 (ite (bvsle (_ bv25203 32) (bvadd (bvadd ?x20275 (bvsub (_ bv38 32) ?x62013)) (_ bv24003 32))) (_ bv4294967295 32) (_ bv0 32))))
(let ((?x7130 (ite (bvsgt (_ bv22803 32) (bvadd (bvadd ?x20275 (bvsub (_ bv38 32) ?x62013)) (_ bv24003 32))) (_ bv1 32) ?x95755)))
(let ((?x53168 (ite (bvsge ?x36977 (bvadd (select ?x202 (_ bv38 32)) ?x7130)) (_ bv38 32) (ite (bvsge ?x36977 (bvadd (select ?x202 (_ bv37 32)) ?x2352)) (_ bv37 32) ?x88264))))
(let ((?x14738 (ite (bvsle (_ bv25203 32) (bvadd (bvadd ?x20275 (bvsub (_ bv39 32) ?x62013)) (_ bv24003 32))) (_ bv4294967295 32) (_ bv0 32))))
(let ((?x26409 (ite (bvsgt (_ bv22803 32) (bvadd (bvadd ?x20275 (bvsub (_ bv39 32) ?x62013)) (_ bv24003 32))) (_ bv1 32) ?x14738)))
(let ((?x45171 (ite (bvsle (_ bv25203 32) (bvadd (bvadd ?x20275 (bvsub (_ bv40 32) ?x62013)) (_ bv24003 32))) (_ bv4294967295 32) (_ bv0 32))))
(let ((?x91271 (ite (bvsgt (_ bv22803 32) (bvadd (bvadd ?x20275 (bvsub (_ bv40 32) ?x62013)) (_ bv24003 32))) (_ bv1 32) ?x45171)))
(let ((?x47169 (ite (bvsge ?x36977 (bvadd (select ?x202 (_ bv40 32)) ?x91271)) (_ bv40 32) (ite (bvsge ?x36977 (bvadd (select ?x202 (_ bv39 32)) ?x26409)) (_ bv39 32) ?x53168))))
(let ((?x7009 (ite (bvsle (_ bv25203 32) (bvadd (bvadd ?x20275 (bvsub (_ bv41 32) ?x62013)) (_ bv24003 32))) (_ bv4294967295 32) (_ bv0 32))))
(let ((?x54419 (ite (bvsgt (_ bv22803 32) (bvadd (bvadd ?x20275 (bvsub (_ bv41 32) ?x62013)) (_ bv24003 32))) (_ bv1 32) ?x7009)))
(let ((?x76824 (ite (bvsle (_ bv25203 32) (bvadd (bvadd ?x20275 (bvsub (_ bv42 32) ?x62013)) (_ bv24003 32))) (_ bv4294967295 32) (_ bv0 32))))
(let ((?x3593 (ite (bvsgt (_ bv22803 32) (bvadd (bvadd ?x20275 (bvsub (_ bv42 32) ?x62013)) (_ bv24003 32))) (_ bv1 32) ?x76824)))
(let ((?x57647 (ite (bvsge ?x36977 (bvadd (select ?x202 (_ bv42 32)) ?x3593)) (_ bv42 32) (ite (bvsge ?x36977 (bvadd (select ?x202 (_ bv41 32)) ?x54419)) (_ bv41 32) ?x47169))))
(let ((?x85919 (ite (bvsle (_ bv25203 32) (bvadd (bvadd ?x20275 (bvsub (_ bv43 32) ?x62013)) (_ bv24003 32))) (_ bv4294967295 32) (_ bv0 32))))
(let ((?x67146 (ite (bvsgt (_ bv22803 32) (bvadd (bvadd ?x20275 (bvsub (_ bv43 32) ?x62013)) (_ bv24003 32))) (_ bv1 32) ?x85919)))
(let ((?x89624 (ite (bvsle (_ bv25203 32) (bvadd (bvadd ?x20275 (bvsub (_ bv44 32) ?x62013)) (_ bv24003 32))) (_ bv4294967295 32) (_ bv0 32))))
(let ((?x20380 (ite (bvsgt (_ bv22803 32) (bvadd (bvadd ?x20275 (bvsub (_ bv44 32) ?x62013)) (_ bv24003 32))) (_ bv1 32) ?x89624)))
(let ((?x41717 (ite (bvsge ?x36977 (bvadd (select ?x202 (_ bv44 32)) ?x20380)) (_ bv44 32) (ite (bvsge ?x36977 (bvadd (select ?x202 (_ bv43 32)) ?x67146)) (_ bv43 32) ?x57647))))
(let ((?x88559 (ite (bvsle (_ bv25203 32) (bvadd (bvadd ?x20275 (bvsub (_ bv45 32) ?x62013)) (_ bv24003 32))) (_ bv4294967295 32) (_ bv0 32))))
(let ((?x44768 (ite (bvsgt (_ bv22803 32) (bvadd (bvadd ?x20275 (bvsub (_ bv45 32) ?x62013)) (_ bv24003 32))) (_ bv1 32) ?x88559)))
(let ((?x68835 (ite (bvsle (_ bv25203 32) (bvadd (bvadd ?x20275 (bvsub (_ bv46 32) ?x62013)) (_ bv24003 32))) (_ bv4294967295 32) (_ bv0 32))))
(let ((?x36009 (ite (bvsgt (_ bv22803 32) (bvadd (bvadd ?x20275 (bvsub (_ bv46 32) ?x62013)) (_ bv24003 32))) (_ bv1 32) ?x68835)))
(let ((?x87300 (ite (bvsge ?x36977 (bvadd (select ?x202 (_ bv46 32)) ?x36009)) (_ bv46 32) (ite (bvsge ?x36977 (bvadd (select ?x202 (_ bv45 32)) ?x44768)) (_ bv45 32) ?x41717))))
(let ((?x51894 (ite (bvsle (_ bv25203 32) (bvadd (bvadd ?x20275 (bvsub (_ bv47 32) ?x62013)) (_ bv24003 32))) (_ bv4294967295 32) (_ bv0 32))))
(let ((?x5041 (ite (bvsgt (_ bv22803 32) (bvadd (bvadd ?x20275 (bvsub (_ bv47 32) ?x62013)) (_ bv24003 32))) (_ bv1 32) ?x51894)))
(let ((?x46076 (ite (bvsge ?x36977 (bvadd (select ?x202 (_ bv47 32)) ?x5041)) (_ bv47 32) ?x87300)))
(let ((?x50167 (bvadd ?x20275 (bvsub ?x46076 ?x62013))))
(let ((?x44509 (bvadd ?x50167 (_ bv24003 32))))
(let ((?x31306 (bvadd (select ?x202 ?x46076) (ite (bvsgt (_ bv22803 32) ?x44509) (_ bv1 32) (ite (bvsle (_ bv25203 32) ?x44509) (_ bv4294967295 32) (_ bv0 32))))))
(let ((?x32148 (bvsub ?x36977 ?x31306)))
(let ((?x56311 (ite (or (= (_ bv22802 32) ?x44509) (= (_ bv25202 32) ?x44509)) (_ bv28 32) (select ?x108 ?x46076))))
(let ((?x11487 (ite (= (_ bv1 32) (ite (bvsge ?x32148 ?x56311) (_ bv1 32) (_ bv0 32))) (bvsub ?x32148 ?x56311) ?x32148)))
(let ((?x44990 (bvsub (bvadd (bvmul (_ bv2023 32) (_ bv12 32)) (_ bv3 32)) (_ bv24003 32))))
(let ((?x89190 (ite (bvsge ?x32148 ?x56311) (_ bv1 32) (_ bv0 32))))
(let ((?x83312 (bvadd ?x50167 ?x89190)))
(or (bvslt ?x83312 ?x44990) (and (= ?x83312 ?x44990) (bvsge (_ bv0 32) ?x11487))))))))))))))))))))))))))))))))))))))))))))))))))))))))))))))))))))))))))))))))))))))))))))))))))))))))))))))))))))))))))))))))))))))))))))))))))))))))))))))))))))))))))))))))))))))))))))))))))))))))))))
(check-sat)
